(set-logic QF_LRA)
(declare-fun X0 () Real )
(declare-fun Y0 () Real )
(declare-fun X1 () Real )
(declare-fun Y1 () Real )
(declare-fun X2 () Real )
(declare-fun Y2 () Real )
(declare-fun X3 () Real )
(declare-fun Y3 () Real )
(declare-fun X4 () Real )
(declare-fun Y4 () Real )
(declare-fun X5 () Real )
(declare-fun Y5 () Real )
(declare-fun X6 () Real )
(declare-fun Y6 () Real )
(declare-fun X7 () Real )
(declare-fun Y7 () Real )
(declare-fun X8 () Real )
(declare-fun Y8 () Real )
(declare-fun X9 () Real )
(declare-fun Y9 () Real )
(declare-fun X10 () Real )
(declare-fun Y10 () Real )
(declare-fun X11 () Real )
(declare-fun Y11 () Real )
(declare-fun X12 () Real )
(declare-fun Y12 () Real )
(declare-fun X13 () Real )
(declare-fun Y13 () Real )
(declare-fun X14 () Real )
(declare-fun Y14 () Real )
(declare-fun X15 () Real )
(declare-fun Y15 () Real )
(declare-fun X16 () Real )
(declare-fun Y16 () Real )
(declare-fun X17 () Real )
(declare-fun Y17 () Real )
(declare-fun Z () Real )
(assert ( and  
( or ( <= ( + X0 88 ) X1 )  ( <= ( + X1 68 ) X0 )  ( <= ( + Y0 6 ) Y1 )  ( <= ( + Y1 39 ) Y0 )  )
( or ( <= ( + X0 88 ) X2 )  ( <= ( + X2 22 ) X0 )  ( <= ( + Y0 6 ) Y2 )  ( <= ( + Y2 18 ) Y0 )  )
( or ( <= ( + X0 88 ) X3 )  ( <= ( + X3 7 ) X0 )  ( <= ( + Y0 6 ) Y3 )  ( <= ( + Y3 60 ) Y0 )  )
( or ( <= ( + X0 88 ) X4 )  ( <= ( + X4 70 ) X0 )  ( <= ( + Y0 6 ) Y4 )  ( <= ( + Y4 89 ) Y0 )  )
( or ( <= ( + X0 88 ) X5 )  ( <= ( + X5 7 ) X0 )  ( <= ( + Y0 6 ) Y5 )  ( <= ( + Y5 34 ) Y0 )  )
( or ( <= ( + X0 88 ) X6 )  ( <= ( + X6 19 ) X0 )  ( <= ( + Y0 6 ) Y6 )  ( <= ( + Y6 66 ) Y0 )  )
( or ( <= ( + X0 88 ) X7 )  ( <= ( + X7 11 ) X0 )  ( <= ( + Y0 6 ) Y7 )  ( <= ( + Y7 75 ) Y0 )  )
( or ( <= ( + X0 88 ) X8 )  ( <= ( + X8 35 ) X0 )  ( <= ( + Y0 6 ) Y8 )  ( <= ( + Y8 55 ) Y0 )  )
( or ( <= ( + X0 88 ) X9 )  ( <= ( + X9 13 ) X0 )  ( <= ( + Y0 6 ) Y9 )  ( <= ( + Y9 73 ) Y0 )  )
( or ( <= ( + X0 88 ) X10 )  ( <= ( + X10 87 ) X0 )  ( <= ( + Y0 6 ) Y10 )  ( <= ( + Y10 82 ) Y0 )  )
( or ( <= ( + X0 88 ) X11 )  ( <= ( + X11 11 ) X0 )  ( <= ( + Y0 6 ) Y11 )  ( <= ( + Y11 69 ) Y0 )  )
( or ( <= ( + X0 88 ) X12 )  ( <= ( + X12 22 ) X0 )  ( <= ( + Y0 6 ) Y12 )  ( <= ( + Y12 73 ) Y0 )  )
( or ( <= ( + X0 88 ) X13 )  ( <= ( + X13 47 ) X0 )  ( <= ( + Y0 6 ) Y13 )  ( <= ( + Y13 21 ) Y0 )  )
( or ( <= ( + X0 88 ) X14 )  ( <= ( + X14 38 ) X0 )  ( <= ( + Y0 6 ) Y14 )  ( <= ( + Y14 37 ) Y0 )  )
( or ( <= ( + X0 88 ) X15 )  ( <= ( + X15 52 ) X0 )  ( <= ( + Y0 6 ) Y15 )  ( <= ( + Y15 46 ) Y0 )  )
( or ( <= ( + X0 88 ) X16 )  ( <= ( + X16 90 ) X0 )  ( <= ( + Y0 6 ) Y16 )  ( <= ( + Y16 80 ) Y0 )  )
( or ( <= ( + X0 88 ) X17 )  ( <= ( + X17 96 ) X0 )  ( <= ( + Y0 6 ) Y17 )  ( <= ( + Y17 6 ) Y0 )  )
( or ( <= ( + X1 68 ) X2 )  ( <= ( + X2 22 ) X1 )  ( <= ( + Y1 39 ) Y2 )  ( <= ( + Y2 18 ) Y1 )  )
( or ( <= ( + X1 68 ) X3 )  ( <= ( + X3 7 ) X1 )  ( <= ( + Y1 39 ) Y3 )  ( <= ( + Y3 60 ) Y1 )  )
( or ( <= ( + X1 68 ) X4 )  ( <= ( + X4 70 ) X1 )  ( <= ( + Y1 39 ) Y4 )  ( <= ( + Y4 89 ) Y1 )  )
( or ( <= ( + X1 68 ) X5 )  ( <= ( + X5 7 ) X1 )  ( <= ( + Y1 39 ) Y5 )  ( <= ( + Y5 34 ) Y1 )  )
( or ( <= ( + X1 68 ) X6 )  ( <= ( + X6 19 ) X1 )  ( <= ( + Y1 39 ) Y6 )  ( <= ( + Y6 66 ) Y1 )  )
( or ( <= ( + X1 68 ) X7 )  ( <= ( + X7 11 ) X1 )  ( <= ( + Y1 39 ) Y7 )  ( <= ( + Y7 75 ) Y1 )  )
( or ( <= ( + X1 68 ) X8 )  ( <= ( + X8 35 ) X1 )  ( <= ( + Y1 39 ) Y8 )  ( <= ( + Y8 55 ) Y1 )  )
( or ( <= ( + X1 68 ) X9 )  ( <= ( + X9 13 ) X1 )  ( <= ( + Y1 39 ) Y9 )  ( <= ( + Y9 73 ) Y1 )  )
( or ( <= ( + X1 68 ) X10 )  ( <= ( + X10 87 ) X1 )  ( <= ( + Y1 39 ) Y10 )  ( <= ( + Y10 82 ) Y1 )  )
( or ( <= ( + X1 68 ) X11 )  ( <= ( + X11 11 ) X1 )  ( <= ( + Y1 39 ) Y11 )  ( <= ( + Y11 69 ) Y1 )  )
( or ( <= ( + X1 68 ) X12 )  ( <= ( + X12 22 ) X1 )  ( <= ( + Y1 39 ) Y12 )  ( <= ( + Y12 73 ) Y1 )  )
( or ( <= ( + X1 68 ) X13 )  ( <= ( + X13 47 ) X1 )  ( <= ( + Y1 39 ) Y13 )  ( <= ( + Y13 21 ) Y1 )  )
( or ( <= ( + X1 68 ) X14 )  ( <= ( + X14 38 ) X1 )  ( <= ( + Y1 39 ) Y14 )  ( <= ( + Y14 37 ) Y1 )  )
( or ( <= ( + X1 68 ) X15 )  ( <= ( + X15 52 ) X1 )  ( <= ( + Y1 39 ) Y15 )  ( <= ( + Y15 46 ) Y1 )  )
( or ( <= ( + X1 68 ) X16 )  ( <= ( + X16 90 ) X1 )  ( <= ( + Y1 39 ) Y16 )  ( <= ( + Y16 80 ) Y1 )  )
( or ( <= ( + X1 68 ) X17 )  ( <= ( + X17 96 ) X1 )  ( <= ( + Y1 39 ) Y17 )  ( <= ( + Y17 6 ) Y1 )  )
( or ( <= ( + X2 22 ) X3 )  ( <= ( + X3 7 ) X2 )  ( <= ( + Y2 18 ) Y3 )  ( <= ( + Y3 60 ) Y2 )  )
( or ( <= ( + X2 22 ) X4 )  ( <= ( + X4 70 ) X2 )  ( <= ( + Y2 18 ) Y4 )  ( <= ( + Y4 89 ) Y2 )  )
( or ( <= ( + X2 22 ) X5 )  ( <= ( + X5 7 ) X2 )  ( <= ( + Y2 18 ) Y5 )  ( <= ( + Y5 34 ) Y2 )  )
( or ( <= ( + X2 22 ) X6 )  ( <= ( + X6 19 ) X2 )  ( <= ( + Y2 18 ) Y6 )  ( <= ( + Y6 66 ) Y2 )  )
( or ( <= ( + X2 22 ) X7 )  ( <= ( + X7 11 ) X2 )  ( <= ( + Y2 18 ) Y7 )  ( <= ( + Y7 75 ) Y2 )  )
( or ( <= ( + X2 22 ) X8 )  ( <= ( + X8 35 ) X2 )  ( <= ( + Y2 18 ) Y8 )  ( <= ( + Y8 55 ) Y2 )  )
( or ( <= ( + X2 22 ) X9 )  ( <= ( + X9 13 ) X2 )  ( <= ( + Y2 18 ) Y9 )  ( <= ( + Y9 73 ) Y2 )  )
( or ( <= ( + X2 22 ) X10 )  ( <= ( + X10 87 ) X2 )  ( <= ( + Y2 18 ) Y10 )  ( <= ( + Y10 82 ) Y2 )  )
( or ( <= ( + X2 22 ) X11 )  ( <= ( + X11 11 ) X2 )  ( <= ( + Y2 18 ) Y11 )  ( <= ( + Y11 69 ) Y2 )  )
( or ( <= ( + X2 22 ) X12 )  ( <= ( + X12 22 ) X2 )  ( <= ( + Y2 18 ) Y12 )  ( <= ( + Y12 73 ) Y2 )  )
( or ( <= ( + X2 22 ) X13 )  ( <= ( + X13 47 ) X2 )  ( <= ( + Y2 18 ) Y13 )  ( <= ( + Y13 21 ) Y2 )  )
( or ( <= ( + X2 22 ) X14 )  ( <= ( + X14 38 ) X2 )  ( <= ( + Y2 18 ) Y14 )  ( <= ( + Y14 37 ) Y2 )  )
( or ( <= ( + X2 22 ) X15 )  ( <= ( + X15 52 ) X2 )  ( <= ( + Y2 18 ) Y15 )  ( <= ( + Y15 46 ) Y2 )  )
( or ( <= ( + X2 22 ) X16 )  ( <= ( + X16 90 ) X2 )  ( <= ( + Y2 18 ) Y16 )  ( <= ( + Y16 80 ) Y2 )  )
( or ( <= ( + X2 22 ) X17 )  ( <= ( + X17 96 ) X2 )  ( <= ( + Y2 18 ) Y17 )  ( <= ( + Y17 6 ) Y2 )  )
( or ( <= ( + X3 7 ) X4 )  ( <= ( + X4 70 ) X3 )  ( <= ( + Y3 60 ) Y4 )  ( <= ( + Y4 89 ) Y3 )  )
( or ( <= ( + X3 7 ) X5 )  ( <= ( + X5 7 ) X3 )  ( <= ( + Y3 60 ) Y5 )  ( <= ( + Y5 34 ) Y3 )  )
( or ( <= ( + X3 7 ) X6 )  ( <= ( + X6 19 ) X3 )  ( <= ( + Y3 60 ) Y6 )  ( <= ( + Y6 66 ) Y3 )  )
( or ( <= ( + X3 7 ) X7 )  ( <= ( + X7 11 ) X3 )  ( <= ( + Y3 60 ) Y7 )  ( <= ( + Y7 75 ) Y3 )  )
( or ( <= ( + X3 7 ) X8 )  ( <= ( + X8 35 ) X3 )  ( <= ( + Y3 60 ) Y8 )  ( <= ( + Y8 55 ) Y3 )  )
( or ( <= ( + X3 7 ) X9 )  ( <= ( + X9 13 ) X3 )  ( <= ( + Y3 60 ) Y9 )  ( <= ( + Y9 73 ) Y3 )  )
( or ( <= ( + X3 7 ) X10 )  ( <= ( + X10 87 ) X3 )  ( <= ( + Y3 60 ) Y10 )  ( <= ( + Y10 82 ) Y3 )  )
( or ( <= ( + X3 7 ) X11 )  ( <= ( + X11 11 ) X3 )  ( <= ( + Y3 60 ) Y11 )  ( <= ( + Y11 69 ) Y3 )  )
( or ( <= ( + X3 7 ) X12 )  ( <= ( + X12 22 ) X3 )  ( <= ( + Y3 60 ) Y12 )  ( <= ( + Y12 73 ) Y3 )  )
( or ( <= ( + X3 7 ) X13 )  ( <= ( + X13 47 ) X3 )  ( <= ( + Y3 60 ) Y13 )  ( <= ( + Y13 21 ) Y3 )  )
( or ( <= ( + X3 7 ) X14 )  ( <= ( + X14 38 ) X3 )  ( <= ( + Y3 60 ) Y14 )  ( <= ( + Y14 37 ) Y3 )  )
( or ( <= ( + X3 7 ) X15 )  ( <= ( + X15 52 ) X3 )  ( <= ( + Y3 60 ) Y15 )  ( <= ( + Y15 46 ) Y3 )  )
( or ( <= ( + X3 7 ) X16 )  ( <= ( + X16 90 ) X3 )  ( <= ( + Y3 60 ) Y16 )  ( <= ( + Y16 80 ) Y3 )  )
( or ( <= ( + X3 7 ) X17 )  ( <= ( + X17 96 ) X3 )  ( <= ( + Y3 60 ) Y17 )  ( <= ( + Y17 6 ) Y3 )  )
( or ( <= ( + X4 70 ) X5 )  ( <= ( + X5 7 ) X4 )  ( <= ( + Y4 89 ) Y5 )  ( <= ( + Y5 34 ) Y4 )  )
( or ( <= ( + X4 70 ) X6 )  ( <= ( + X6 19 ) X4 )  ( <= ( + Y4 89 ) Y6 )  ( <= ( + Y6 66 ) Y4 )  )
( or ( <= ( + X4 70 ) X7 )  ( <= ( + X7 11 ) X4 )  ( <= ( + Y4 89 ) Y7 )  ( <= ( + Y7 75 ) Y4 )  )
( or ( <= ( + X4 70 ) X8 )  ( <= ( + X8 35 ) X4 )  ( <= ( + Y4 89 ) Y8 )  ( <= ( + Y8 55 ) Y4 )  )
( or ( <= ( + X4 70 ) X9 )  ( <= ( + X9 13 ) X4 )  ( <= ( + Y4 89 ) Y9 )  ( <= ( + Y9 73 ) Y4 )  )
( or ( <= ( + X4 70 ) X10 )  ( <= ( + X10 87 ) X4 )  ( <= ( + Y4 89 ) Y10 )  ( <= ( + Y10 82 ) Y4 )  )
( or ( <= ( + X4 70 ) X11 )  ( <= ( + X11 11 ) X4 )  ( <= ( + Y4 89 ) Y11 )  ( <= ( + Y11 69 ) Y4 )  )
( or ( <= ( + X4 70 ) X12 )  ( <= ( + X12 22 ) X4 )  ( <= ( + Y4 89 ) Y12 )  ( <= ( + Y12 73 ) Y4 )  )
( or ( <= ( + X4 70 ) X13 )  ( <= ( + X13 47 ) X4 )  ( <= ( + Y4 89 ) Y13 )  ( <= ( + Y13 21 ) Y4 )  )
( or ( <= ( + X4 70 ) X14 )  ( <= ( + X14 38 ) X4 )  ( <= ( + Y4 89 ) Y14 )  ( <= ( + Y14 37 ) Y4 )  )
( or ( <= ( + X4 70 ) X15 )  ( <= ( + X15 52 ) X4 )  ( <= ( + Y4 89 ) Y15 )  ( <= ( + Y15 46 ) Y4 )  )
( or ( <= ( + X4 70 ) X16 )  ( <= ( + X16 90 ) X4 )  ( <= ( + Y4 89 ) Y16 )  ( <= ( + Y16 80 ) Y4 )  )
( or ( <= ( + X4 70 ) X17 )  ( <= ( + X17 96 ) X4 )  ( <= ( + Y4 89 ) Y17 )  ( <= ( + Y17 6 ) Y4 )  )
( or ( <= ( + X5 7 ) X6 )  ( <= ( + X6 19 ) X5 )  ( <= ( + Y5 34 ) Y6 )  ( <= ( + Y6 66 ) Y5 )  )
( or ( <= ( + X5 7 ) X7 )  ( <= ( + X7 11 ) X5 )  ( <= ( + Y5 34 ) Y7 )  ( <= ( + Y7 75 ) Y5 )  )
( or ( <= ( + X5 7 ) X8 )  ( <= ( + X8 35 ) X5 )  ( <= ( + Y5 34 ) Y8 )  ( <= ( + Y8 55 ) Y5 )  )
( or ( <= ( + X5 7 ) X9 )  ( <= ( + X9 13 ) X5 )  ( <= ( + Y5 34 ) Y9 )  ( <= ( + Y9 73 ) Y5 )  )
( or ( <= ( + X5 7 ) X10 )  ( <= ( + X10 87 ) X5 )  ( <= ( + Y5 34 ) Y10 )  ( <= ( + Y10 82 ) Y5 )  )
( or ( <= ( + X5 7 ) X11 )  ( <= ( + X11 11 ) X5 )  ( <= ( + Y5 34 ) Y11 )  ( <= ( + Y11 69 ) Y5 )  )
( or ( <= ( + X5 7 ) X12 )  ( <= ( + X12 22 ) X5 )  ( <= ( + Y5 34 ) Y12 )  ( <= ( + Y12 73 ) Y5 )  )
( or ( <= ( + X5 7 ) X13 )  ( <= ( + X13 47 ) X5 )  ( <= ( + Y5 34 ) Y13 )  ( <= ( + Y13 21 ) Y5 )  )
( or ( <= ( + X5 7 ) X14 )  ( <= ( + X14 38 ) X5 )  ( <= ( + Y5 34 ) Y14 )  ( <= ( + Y14 37 ) Y5 )  )
( or ( <= ( + X5 7 ) X15 )  ( <= ( + X15 52 ) X5 )  ( <= ( + Y5 34 ) Y15 )  ( <= ( + Y15 46 ) Y5 )  )
( or ( <= ( + X5 7 ) X16 )  ( <= ( + X16 90 ) X5 )  ( <= ( + Y5 34 ) Y16 )  ( <= ( + Y16 80 ) Y5 )  )
( or ( <= ( + X5 7 ) X17 )  ( <= ( + X17 96 ) X5 )  ( <= ( + Y5 34 ) Y17 )  ( <= ( + Y17 6 ) Y5 )  )
( or ( <= ( + X6 19 ) X7 )  ( <= ( + X7 11 ) X6 )  ( <= ( + Y6 66 ) Y7 )  ( <= ( + Y7 75 ) Y6 )  )
( or ( <= ( + X6 19 ) X8 )  ( <= ( + X8 35 ) X6 )  ( <= ( + Y6 66 ) Y8 )  ( <= ( + Y8 55 ) Y6 )  )
( or ( <= ( + X6 19 ) X9 )  ( <= ( + X9 13 ) X6 )  ( <= ( + Y6 66 ) Y9 )  ( <= ( + Y9 73 ) Y6 )  )
( or ( <= ( + X6 19 ) X10 )  ( <= ( + X10 87 ) X6 )  ( <= ( + Y6 66 ) Y10 )  ( <= ( + Y10 82 ) Y6 )  )
( or ( <= ( + X6 19 ) X11 )  ( <= ( + X11 11 ) X6 )  ( <= ( + Y6 66 ) Y11 )  ( <= ( + Y11 69 ) Y6 )  )
( or ( <= ( + X6 19 ) X12 )  ( <= ( + X12 22 ) X6 )  ( <= ( + Y6 66 ) Y12 )  ( <= ( + Y12 73 ) Y6 )  )
( or ( <= ( + X6 19 ) X13 )  ( <= ( + X13 47 ) X6 )  ( <= ( + Y6 66 ) Y13 )  ( <= ( + Y13 21 ) Y6 )  )
( or ( <= ( + X6 19 ) X14 )  ( <= ( + X14 38 ) X6 )  ( <= ( + Y6 66 ) Y14 )  ( <= ( + Y14 37 ) Y6 )  )
( or ( <= ( + X6 19 ) X15 )  ( <= ( + X15 52 ) X6 )  ( <= ( + Y6 66 ) Y15 )  ( <= ( + Y15 46 ) Y6 )  )
( or ( <= ( + X6 19 ) X16 )  ( <= ( + X16 90 ) X6 )  ( <= ( + Y6 66 ) Y16 )  ( <= ( + Y16 80 ) Y6 )  )
( or ( <= ( + X6 19 ) X17 )  ( <= ( + X17 96 ) X6 )  ( <= ( + Y6 66 ) Y17 )  ( <= ( + Y17 6 ) Y6 )  )
( or ( <= ( + X7 11 ) X8 )  ( <= ( + X8 35 ) X7 )  ( <= ( + Y7 75 ) Y8 )  ( <= ( + Y8 55 ) Y7 )  )
( or ( <= ( + X7 11 ) X9 )  ( <= ( + X9 13 ) X7 )  ( <= ( + Y7 75 ) Y9 )  ( <= ( + Y9 73 ) Y7 )  )
( or ( <= ( + X7 11 ) X10 )  ( <= ( + X10 87 ) X7 )  ( <= ( + Y7 75 ) Y10 )  ( <= ( + Y10 82 ) Y7 )  )
( or ( <= ( + X7 11 ) X11 )  ( <= ( + X11 11 ) X7 )  ( <= ( + Y7 75 ) Y11 )  ( <= ( + Y11 69 ) Y7 )  )
( or ( <= ( + X7 11 ) X12 )  ( <= ( + X12 22 ) X7 )  ( <= ( + Y7 75 ) Y12 )  ( <= ( + Y12 73 ) Y7 )  )
( or ( <= ( + X7 11 ) X13 )  ( <= ( + X13 47 ) X7 )  ( <= ( + Y7 75 ) Y13 )  ( <= ( + Y13 21 ) Y7 )  )
( or ( <= ( + X7 11 ) X14 )  ( <= ( + X14 38 ) X7 )  ( <= ( + Y7 75 ) Y14 )  ( <= ( + Y14 37 ) Y7 )  )
( or ( <= ( + X7 11 ) X15 )  ( <= ( + X15 52 ) X7 )  ( <= ( + Y7 75 ) Y15 )  ( <= ( + Y15 46 ) Y7 )  )
( or ( <= ( + X7 11 ) X16 )  ( <= ( + X16 90 ) X7 )  ( <= ( + Y7 75 ) Y16 )  ( <= ( + Y16 80 ) Y7 )  )
( or ( <= ( + X7 11 ) X17 )  ( <= ( + X17 96 ) X7 )  ( <= ( + Y7 75 ) Y17 )  ( <= ( + Y17 6 ) Y7 )  )
( or ( <= ( + X8 35 ) X9 )  ( <= ( + X9 13 ) X8 )  ( <= ( + Y8 55 ) Y9 )  ( <= ( + Y9 73 ) Y8 )  )
( or ( <= ( + X8 35 ) X10 )  ( <= ( + X10 87 ) X8 )  ( <= ( + Y8 55 ) Y10 )  ( <= ( + Y10 82 ) Y8 )  )
( or ( <= ( + X8 35 ) X11 )  ( <= ( + X11 11 ) X8 )  ( <= ( + Y8 55 ) Y11 )  ( <= ( + Y11 69 ) Y8 )  )
( or ( <= ( + X8 35 ) X12 )  ( <= ( + X12 22 ) X8 )  ( <= ( + Y8 55 ) Y12 )  ( <= ( + Y12 73 ) Y8 )  )
( or ( <= ( + X8 35 ) X13 )  ( <= ( + X13 47 ) X8 )  ( <= ( + Y8 55 ) Y13 )  ( <= ( + Y13 21 ) Y8 )  )
( or ( <= ( + X8 35 ) X14 )  ( <= ( + X14 38 ) X8 )  ( <= ( + Y8 55 ) Y14 )  ( <= ( + Y14 37 ) Y8 )  )
( or ( <= ( + X8 35 ) X15 )  ( <= ( + X15 52 ) X8 )  ( <= ( + Y8 55 ) Y15 )  ( <= ( + Y15 46 ) Y8 )  )
( or ( <= ( + X8 35 ) X16 )  ( <= ( + X16 90 ) X8 )  ( <= ( + Y8 55 ) Y16 )  ( <= ( + Y16 80 ) Y8 )  )
( or ( <= ( + X8 35 ) X17 )  ( <= ( + X17 96 ) X8 )  ( <= ( + Y8 55 ) Y17 )  ( <= ( + Y17 6 ) Y8 )  )
( or ( <= ( + X9 13 ) X10 )  ( <= ( + X10 87 ) X9 )  ( <= ( + Y9 73 ) Y10 )  ( <= ( + Y10 82 ) Y9 )  )
( or ( <= ( + X9 13 ) X11 )  ( <= ( + X11 11 ) X9 )  ( <= ( + Y9 73 ) Y11 )  ( <= ( + Y11 69 ) Y9 )  )
( or ( <= ( + X9 13 ) X12 )  ( <= ( + X12 22 ) X9 )  ( <= ( + Y9 73 ) Y12 )  ( <= ( + Y12 73 ) Y9 )  )
( or ( <= ( + X9 13 ) X13 )  ( <= ( + X13 47 ) X9 )  ( <= ( + Y9 73 ) Y13 )  ( <= ( + Y13 21 ) Y9 )  )
( or ( <= ( + X9 13 ) X14 )  ( <= ( + X14 38 ) X9 )  ( <= ( + Y9 73 ) Y14 )  ( <= ( + Y14 37 ) Y9 )  )
( or ( <= ( + X9 13 ) X15 )  ( <= ( + X15 52 ) X9 )  ( <= ( + Y9 73 ) Y15 )  ( <= ( + Y15 46 ) Y9 )  )
( or ( <= ( + X9 13 ) X16 )  ( <= ( + X16 90 ) X9 )  ( <= ( + Y9 73 ) Y16 )  ( <= ( + Y16 80 ) Y9 )  )
( or ( <= ( + X9 13 ) X17 )  ( <= ( + X17 96 ) X9 )  ( <= ( + Y9 73 ) Y17 )  ( <= ( + Y17 6 ) Y9 )  )
( or ( <= ( + X10 87 ) X11 )  ( <= ( + X11 11 ) X10 )  ( <= ( + Y10 82 ) Y11 )  ( <= ( + Y11 69 ) Y10 )  )
( or ( <= ( + X10 87 ) X12 )  ( <= ( + X12 22 ) X10 )  ( <= ( + Y10 82 ) Y12 )  ( <= ( + Y12 73 ) Y10 )  )
( or ( <= ( + X10 87 ) X13 )  ( <= ( + X13 47 ) X10 )  ( <= ( + Y10 82 ) Y13 )  ( <= ( + Y13 21 ) Y10 )  )
( or ( <= ( + X10 87 ) X14 )  ( <= ( + X14 38 ) X10 )  ( <= ( + Y10 82 ) Y14 )  ( <= ( + Y14 37 ) Y10 )  )
( or ( <= ( + X10 87 ) X15 )  ( <= ( + X15 52 ) X10 )  ( <= ( + Y10 82 ) Y15 )  ( <= ( + Y15 46 ) Y10 )  )
( or ( <= ( + X10 87 ) X16 )  ( <= ( + X16 90 ) X10 )  ( <= ( + Y10 82 ) Y16 )  ( <= ( + Y16 80 ) Y10 )  )
( or ( <= ( + X10 87 ) X17 )  ( <= ( + X17 96 ) X10 )  ( <= ( + Y10 82 ) Y17 )  ( <= ( + Y17 6 ) Y10 )  )
( or ( <= ( + X11 11 ) X12 )  ( <= ( + X12 22 ) X11 )  ( <= ( + Y11 69 ) Y12 )  ( <= ( + Y12 73 ) Y11 )  )
( or ( <= ( + X11 11 ) X13 )  ( <= ( + X13 47 ) X11 )  ( <= ( + Y11 69 ) Y13 )  ( <= ( + Y13 21 ) Y11 )  )
( or ( <= ( + X11 11 ) X14 )  ( <= ( + X14 38 ) X11 )  ( <= ( + Y11 69 ) Y14 )  ( <= ( + Y14 37 ) Y11 )  )
( or ( <= ( + X11 11 ) X15 )  ( <= ( + X15 52 ) X11 )  ( <= ( + Y11 69 ) Y15 )  ( <= ( + Y15 46 ) Y11 )  )
( or ( <= ( + X11 11 ) X16 )  ( <= ( + X16 90 ) X11 )  ( <= ( + Y11 69 ) Y16 )  ( <= ( + Y16 80 ) Y11 )  )
( or ( <= ( + X11 11 ) X17 )  ( <= ( + X17 96 ) X11 )  ( <= ( + Y11 69 ) Y17 )  ( <= ( + Y17 6 ) Y11 )  )
( or ( <= ( + X12 22 ) X13 )  ( <= ( + X13 47 ) X12 )  ( <= ( + Y12 73 ) Y13 )  ( <= ( + Y13 21 ) Y12 )  )
( or ( <= ( + X12 22 ) X14 )  ( <= ( + X14 38 ) X12 )  ( <= ( + Y12 73 ) Y14 )  ( <= ( + Y14 37 ) Y12 )  )
( or ( <= ( + X12 22 ) X15 )  ( <= ( + X15 52 ) X12 )  ( <= ( + Y12 73 ) Y15 )  ( <= ( + Y15 46 ) Y12 )  )
( or ( <= ( + X12 22 ) X16 )  ( <= ( + X16 90 ) X12 )  ( <= ( + Y12 73 ) Y16 )  ( <= ( + Y16 80 ) Y12 )  )
( or ( <= ( + X12 22 ) X17 )  ( <= ( + X17 96 ) X12 )  ( <= ( + Y12 73 ) Y17 )  ( <= ( + Y17 6 ) Y12 )  )
( or ( <= ( + X13 47 ) X14 )  ( <= ( + X14 38 ) X13 )  ( <= ( + Y13 21 ) Y14 )  ( <= ( + Y14 37 ) Y13 )  )
( or ( <= ( + X13 47 ) X15 )  ( <= ( + X15 52 ) X13 )  ( <= ( + Y13 21 ) Y15 )  ( <= ( + Y15 46 ) Y13 )  )
( or ( <= ( + X13 47 ) X16 )  ( <= ( + X16 90 ) X13 )  ( <= ( + Y13 21 ) Y16 )  ( <= ( + Y16 80 ) Y13 )  )
( or ( <= ( + X13 47 ) X17 )  ( <= ( + X17 96 ) X13 )  ( <= ( + Y13 21 ) Y17 )  ( <= ( + Y17 6 ) Y13 )  )
( or ( <= ( + X14 38 ) X15 )  ( <= ( + X15 52 ) X14 )  ( <= ( + Y14 37 ) Y15 )  ( <= ( + Y15 46 ) Y14 )  )
( or ( <= ( + X14 38 ) X16 )  ( <= ( + X16 90 ) X14 )  ( <= ( + Y14 37 ) Y16 )  ( <= ( + Y16 80 ) Y14 )  )
( or ( <= ( + X14 38 ) X17 )  ( <= ( + X17 96 ) X14 )  ( <= ( + Y14 37 ) Y17 )  ( <= ( + Y17 6 ) Y14 )  )
( or ( <= ( + X15 52 ) X16 )  ( <= ( + X16 90 ) X15 )  ( <= ( + Y15 46 ) Y16 )  ( <= ( + Y16 80 ) Y15 )  )
( or ( <= ( + X15 52 ) X17 )  ( <= ( + X17 96 ) X15 )  ( <= ( + Y15 46 ) Y17 )  ( <= ( + Y17 6 ) Y15 )  )
( or ( <= ( + X16 90 ) X17 )  ( <= ( + X17 96 ) X16 )  ( <= ( + Y16 80 ) Y17 )  ( <= ( + Y17 6 ) Y16 )  )
( >= X0 0)
( <= ( + X0 88) Z)
( >= Y0 0)
( <= ( + Y0 6 ) 100)
( >= X1 0)
( <= ( + X1 68) Z)
( >= Y1 0)
( <= ( + Y1 39 ) 100)
( >= X2 0)
( <= ( + X2 22) Z)
( >= Y2 0)
( <= ( + Y2 18 ) 100)
( >= X3 0)
( <= ( + X3 7) Z)
( >= Y3 0)
( <= ( + Y3 60 ) 100)
( >= X4 0)
( <= ( + X4 70) Z)
( >= Y4 0)
( <= ( + Y4 89 ) 100)
( >= X5 0)
( <= ( + X5 7) Z)
( >= Y5 0)
( <= ( + Y5 34 ) 100)
( >= X6 0)
( <= ( + X6 19) Z)
( >= Y6 0)
( <= ( + Y6 66 ) 100)
( >= X7 0)
( <= ( + X7 11) Z)
( >= Y7 0)
( <= ( + Y7 75 ) 100)
( >= X8 0)
( <= ( + X8 35) Z)
( >= Y8 0)
( <= ( + Y8 55 ) 100)
( >= X9 0)
( <= ( + X9 13) Z)
( >= Y9 0)
( <= ( + Y9 73 ) 100)
( >= X10 0)
( <= ( + X10 87) Z)
( >= Y10 0)
( <= ( + Y10 82 ) 100)
( >= X11 0)
( <= ( + X11 11) Z)
( >= Y11 0)
( <= ( + Y11 69 ) 100)
( >= X12 0)
( <= ( + X12 22) Z)
( >= Y12 0)
( <= ( + Y12 73 ) 100)
( >= X13 0)
( <= ( + X13 47) Z)
( >= Y13 0)
( <= ( + Y13 21 ) 100)
( >= X14 0)
( <= ( + X14 38) Z)
( >= Y14 0)
( <= ( + Y14 37 ) 100)
( >= X15 0)
( <= ( + X15 52) Z)
( >= Y15 0)
( <= ( + Y15 46 ) 100)
( >= X16 0)
( <= ( + X16 90) Z)
( >= Y16 0)
( <= ( + Y16 80 ) 100)
( >= X17 0)
( <= ( + X17 96) Z)
( >= Y17 0)
( <= ( + Y17 6 ) 100)
) )
(minimize Z)
(check-sat)
